21528
68,73,50,44,2,54,40,64,69,81,25,61,58,67,28,93,1,63,6,49,90,79,53,19,75,92,8,42,89,31,80,56,97,4,65,26,66,70,22,16,88,94,18,24,38,99,36,84,10,72,21,74,59,17,15,11,47,32,45,91,98,23,77,60,62,35,86,27,12,20,57,51,87,9,7,55,83,34,29,46,43,3,14,71,41,100,48,30,39,96,78,52,5,37,33,76,13,95,82,85,68
